7,4	0,0	6,7	19,0	0,0	0,0	0,0	0,0	0,0	5,3
19,9	7,2	0,0	10,0	5,1	0,0	0,0	11,4	0,0	0,0
0,0	0,0	15,0	0,0	10,8	18,9	0,0	0,0	15,7	0,0
12,2	0,0	13,6	0,0	0,0	0,0	15,8	0,0	0,0	0,0
0,0	14,2	0,0	19,3	13,7	0,0	0,0	5,1	0,0	0,0
0,0	7,6	18,3	0,0	15,8	10,7	0,0	0,0	13,9	0,0
0,0	15,9	0,0	14,1	0,0	0,0	19,8	0,0	0,0	17,4
7,4	0,0	17,3	0,0	0,0	0,0	0,0	0,0	0,0	10,7
0,0	14,4	0,0	5,7	10,1	0,0	0,0	11,0	0,0	0,0
0,0	0,0	7,1	0,0	0,0	15,3	17,1	0,0	0,0	11,7
0,0	11,1	0,0	0,0	17,8	0,0	13,3	0,0	17,5	19,1
12,3	0,0	5,6	0,0	6,5	0,0	7,6	5,4	13,8	0,0
0,0	16,7	0,0	0,0	0,0	8,9	0,0	18,7	14,5	16,7
9,4	10,3	15,2	0,0	0,0	17,8	0,0	15,6	16,0	0,0
6,3	0,0	5,9	0,0	10,0	11,9	13,1	8,2	0,0	0,0
0,0	11,7	0,0	18,5	0,0	17,3	0,0	7,5	0,0	0,0
18,3	0,0	10,8	6,2	19,6	0,0	0,0	16,1	0,0	0,0
0,0	0,0	6,8	0,0	0,0	10,4	15,0	0,0	10,7	13,8
9,3	0,0	0,0	12,2	14,0	10,2	11,1	14,7	0,0	13,0
0,0	14,5	0,0	12,5	0,0	0,0	13,8	0,0	20,0	8,7
									
3,3	4,4	3,6	4,4	4,0	3,5	4,8	4,4	3,5	4,4
